NAME: tsp_24
COMMENT: Random TSP instance
TYPE: TSP
DIMENSION: 50
EDGE_WEIGHT_TYPE: EUC_2D
NODE_COORD_SECTION
1 366 322
2 939 802
3 248 415
4 99 624
5 190 310
6 768 880
7 817 695
8 143 408
9 595 629
10 350 722
11 189 101
12 689 555
13 272 4
14 302 512
15 1000 212
16 665 75
17 706 412
18 669 732
19 365 206
20 471 130
21 56 362
22 828 426
23 459 651
24 369 680
25 136 537
26 313 792
27 785 64
28 458 423
29 341 655
30 713 545
31 461 55
32 643 707
33 126 991
34 561 160
35 861 61
36 854 309
37 749 983
38 590 258
39 125 286
40 332 137
41 31 781
42 921 687
43 729 773
44 92 513
45 939 83
46 15 294
47 514 56
48 698 573
49 118 209
50 199 792
